RT is False
Default write of storage_offers_DA.csv just to have a file (but constraint should be inactive)
Reading model...
...model read.
creating competitive generators file...
...competitive generators recorded.
Loading data...
.. day-ahead data read.
Compiling instance...
...instance created.
Creating Offer Mitigation (model will solve as dispatch if TRUE)...
NOTE: storage offers will not be mitigated
...storage offer mitigation file created
LP
RUNNING NORMAL LP
Solving...

Welcome to IBM(R) ILOG(R) CPLEX(R) Interactive Optimizer 12.9.0.0
  with Simplex, Mixed Integer & Barrier Optimizers
5725-A06 5725-A29 5724-Y48 5724-Y49 5724-Y54 5724-Y55 5655-Y21
Copyright IBM Corp. 1988, 2019.  All Rights Reserved.

Type 'help' for a list of available commands.
Type 'help' followed by a command name for more
information on commands.

CPLEX> Logfile 'cplex.log' closed.
Logfile 'C:\Users\Luke\Desktop\competitiveMPEC_1.16\logs\tmpqw27vu_v.cplex.log' open.
CPLEX> New value for parallel optimization mode: -1
CPLEX> New value for mixed integer optimality gap tolerance: 0.01
CPLEX> New value for feasibility tolerance: 0.01
CPLEX> New value for deterministic time limit in ticks: 100000
CPLEX> Problem 'C:\Users\Luke\Desktop\competitiveMPEC_1.16\logs\tmpuhi3hr13.pyomo.lp' read.
Read time = 0.03 sec. (2.98 ticks)
CPLEX> Problem name         : C:\Users\Luke\Desktop\competitiveMPEC_1.16\logs\tmpuhi3hr13.pyomo.lp
Objective sense      : Minimize
Variables            :   25839  [Nneg: 889,  Box: 21470,  Free: 3480]
Objective nonzeros   :    2496
Linear constraints   :   27297  [Less: 13861,  Greater: 4416,  Equal: 9020]
  Nonzeros           :   87324
  RHS nonzeros       :   12173

Variables            : Min LB: -5000.000        Max UB: 5000.000       
Objective nonzeros   : Min   : 15.73158         Max   : 124.0997       
Linear constraints   :
  Nonzeros           : Min   : 0.8500000        Max   : 3000.000       
  RHS nonzeros       : Min   : 0.1000000        Max   : 250000.0       
CPLEX> CPXPARAM_Parallel                                -1
CPXPARAM_Simplex_Tolerances_Feasibility          0.01
CPXPARAM_DetTimeLimit                            100000
CPXPARAM_MIP_Tolerances_MIPGap                   0.01
Parallel mode: opportunistic, using up to 24 threads for concurrent optimization.
Tried aggregator 1 time.
LP Presolve eliminated 22001 rows and 17622 columns.
Aggregator did 746 substitutions.
Reduced LP has 4550 rows, 7471 columns, and 19837 nonzeros.
Presolve time = 0.05 sec. (27.47 ticks)

Iteration log . . .
Iteration:     1   Dual objective     =             0.000000
Perturbation started.
Iteration:   101   Dual objective     =             0.000000
Iteration:   404   Dual objective     =             0.422913
Iteration:   731   Dual objective     =             0.751975
Iteration:  1076   Dual objective     =             1.061367
Iteration:  1406   Dual objective     =             1.326894
Iteration:  1768   Dual objective     =             1.621430
Iteration:  2092   Dual objective     =             1.804520
Iteration:  2395   Dual objective     =             1.866128
Iteration:  2649   Dual objective     =             1.891257
Iteration:  2885   Dual objective     =         10630.532314
Iteration:  3160   Dual objective     =         23435.002675
Iteration:  3474   Dual objective     =         32474.817702
Iteration:  3725   Dual objective     =         68484.918166
Iteration:  4134   Dual objective     =         69812.494149
Removing perturbation.

Dual simplex solved model.


Dual simplex - Optimal:  Objective =  6.9810583098e+04
Solution time =    0.13 sec.  Iterations = 4145 (0)
Deterministic time = 87.97 ticks  (703.72 ticks/sec)

CPLEX> Solution written to file 'C:\Users\Luke\Desktop\competitiveMPEC_1.16\logs\tmpnj3gjac_.cplex.sol'.
CPLEX> Exporting results... 
